c "527035.clq"
p edge 100 1344
e 1 17
e 1 18
e 1 19
e 1 20
e 1 21
e 1 23
e 1 24
e 1 26
e 1 29
e 1 30
e 1 31
e 1 33
e 1 39
e 1 40
e 1 43
e 1 45
e 1 47
e 1 50
e 1 54
e 1 58
e 1 61
e 1 69
e 1 72
e 1 77
e 1 79
e 1 87
e 1 95
e 1 97
e 2 17
e 2 32
e 2 46
e 2 54
e 2 71
e 3 17
e 3 18
e 3 19
e 3 20
e 3 21
e 3 22
e 3 23
e 3 24
e 3 25
e 3 27
e 3 28
e 3 29
e 3 31
e 3 34
e 3 35
e 3 41
e 3 43
e 3 45
e 3 47
e 3 54
e 3 55
e 3 67
e 3 71
e 3 74
e 3 81
e 3 86
e 3 87
e 3 98
e 4 17
e 4 18
e 4 19
e 4 20
e 4 21
e 4 22
e 4 23
e 4 24
e 4 25
e 4 26
e 4 29
e 4 32
e 4 34
e 4 37
e 4 38
e 4 43
e 4 44
e 4 53
e 4 54
e 4 55
e 4 56
e 4 62
e 4 65
e 4 68
e 4 72
e 4 79
e 4 82
e 4 83
e 4 85
e 4 86
e 4 88
e 4 92
e 4 95
e 4 99
e 5 17
e 5 18
e 5 20
e 5 21
e 5 22
e 5 23
e 5 25
e 5 26
e 5 27
e 5 47
e 5 50
e 5 54
e 5 55
e 5 70
e 5 74
e 5 81
e 5 85
e 5 92
e 6 17
e 6 18
e 6 19
e 6 20
e 6 21
e 6 22
e 6 24
e 6 26
e 6 27
e 6 29
e 6 30
e 6 32
e 6 34
e 6 37
e 6 38
e 6 44
e 6 46
e 6 47
e 6 48
e 6 49
e 6 60
e 6 63
e 6 65
e 6 66
e 6 72
e 6 81
e 6 82
e 6 91
e 6 95
e 7 17
e 7 18
e 7 19
e 7 20
e 7 21
e 7 23
e 7 24
e 7 33
e 7 36
e 7 39
e 7 42
e 7 43
e 7 47
e 7 48
e 7 51
e 7 56
e 7 60
e 7 67
e 7 69
e 7 73
e 7 78
e 7 82
e 7 89
e 7 96
e 8 17
e 8 18
e 8 19
e 8 20
e 8 21
e 8 22
e 8 24
e 8 25
e 8 26
e 8 28
e 8 29
e 8 30
e 8 32
e 8 35
e 8 40
e 8 52
e 8 53
e 8 54
e 8 59
e 8 61
e 8 78
e 8 85
e 8 87
e 8 88
e 9 17
e 9 18
e 9 19
e 9 20
e 9 21
e 9 22
e 9 31
e 9 33
e 9 35
e 9 46
e 9 67
e 9 69
e 9 77
e 9 79
e 9 81
e 9 87
e 9 95
e 10 17
e 10 18
e 10 19
e 10 20
e 10 21
e 10 22
e 10 23
e 10 25
e 10 31
e 10 32
e 10 37
e 10 38
e 10 41
e 10 46
e 10 55
e 10 56
e 10 60
e 10 66
e 10 71
e 10 76
e 10 91
e 11 17
e 11 18
e 11 19
e 11 20
e 11 22
e 11 23
e 11 25
e 11 27
e 11 30
e 11 31
e 11 32
e 11 40
e 11 47
e 11 56
e 11 57
e 11 60
e 11 61
e 11 89
e 11 90
e 11 91
e 12 17
e 12 18
e 12 19
e 12 20
e 12 25
e 12 26
e 12 27
e 12 30
e 12 31
e 12 32
e 12 33
e 12 34
e 12 36
e 12 37
e 12 39
e 12 40
e 12 42
e 12 43
e 12 45
e 12 46
e 12 48
e 12 50
e 12 57
e 12 58
e 12 65
e 12 71
e 12 73
e 12 75
e 12 86
e 13 17
e 13 18
e 13 19
e 13 23
e 13 24
e 13 27
e 13 37
e 13 49
e 13 50
e 13 56
e 13 58
e 13 90
e 13 92
e 13 99
e 14 17
e 14 18
e 14 19
e 14 21
e 14 22
e 14 23
e 14 24
e 14 28
e 14 29
e 14 33
e 14 34
e 14 36
e 14 37
e 14 39
e 14 41
e 14 42
e 14 43
e 14 48
e 14 56
e 14 57
e 14 58
e 14 69
e 14 73
e 14 74
e 14 77
e 14 88
e 15 17
e 15 18
e 15 19
e 15 20
e 15 21
e 15 22
e 15 23
e 15 24
e 15 25
e 15 26
e 15 28
e 15 29
e 15 30
e 15 31
e 15 32
e 15 34
e 15 47
e 15 48
e 15 51
e 15 52
e 15 53
e 15 55
e 15 60
e 15 65
e 15 70
e 15 73
e 15 76
e 15 84
e 15 86
e 15 88
e 15 89
e 15 91
e 15 94
e 16 17
e 16 18
e 16 19
e 16 20
e 16 21
e 16 22
e 16 25
e 16 28
e 16 35
e 16 36
e 16 37
e 16 38
e 16 41
e 16 42
e 16 45
e 16 48
e 16 49
e 16 59
e 16 63
e 16 65
e 16 67
e 16 74
e 16 85
e 16 87
e 16 88
e 16 92
e 17 18
e 17 19
e 17 20
e 17 21
e 17 22
e 17 23
e 17 24
e 17 25
e 17 26
e 17 27
e 17 28
e 17 29
e 17 30
e 17 31
e 17 32
e 17 35
e 17 36
e 17 37
e 17 41
e 17 43
e 17 44
e 17 45
e 17 46
e 17 47
e 17 48
e 17 50
e 17 51
e 17 52
e 17 56
e 17 57
e 17 59
e 17 65
e 17 66
e 17 70
e 17 72
e 17 75
e 17 76
e 17 80
e 17 81
e 17 88
e 17 91
e 17 92
e 17 94
e 17 96
e 18 19
e 18 20
e 18 21
e 18 22
e 18 23
e 18 24
e 18 25
e 18 26
e 18 27
e 18 28
e 18 29
e 18 30
e 18 33
e 18 34
e 18 35
e 18 36
e 18 37
e 18 38
e 18 39
e 18 40
e 18 41
e 18 42
e 18 44
e 18 51
e 18 52
e 18 54
e 18 62
e 18 64
e 18 65
e 18 71
e 18 72
e 18 73
e 18 74
e 18 75
e 18 78
e 18 85
e 18 91
e 18 92
e 18 96
e 18 97
e 19 20
e 19 21
e 19 22
e 19 23
e 19 24
e 19 25
e 19 26
e 19 27
e 19 28
e 19 30
e 19 32
e 19 33
e 19 35
e 19 36
e 19 38
e 19 39
e 19 41
e 19 43
e 19 44
e 19 45
e 19 46
e 19 49
e 19 50
e 19 51
e 19 52
e 19 55
e 19 57
e 19 59
e 19 60
e 19 62
e 19 68
e 19 69
e 19 73
e 19 76
e 19 79
e 19 80
e 19 82
e 19 90
e 19 92
e 19 96
e 19 98
e 20 21
e 20 22
e 20 23
e 20 24
e 20 25
e 20 26
e 20 27
e 20 28
e 20 29
e 20 30
e 20 31
e 20 32
e 20 33
e 20 36
e 20 37
e 20 41
e 20 42
e 20 43
e 20 44
e 20 47
e 20 48
e 20 50
e 20 51
e 20 53
e 20 54
e 20 55
e 20 59
e 20 60
e 20 61
e 20 63
e 20 64
e 20 68
e 20 69
e 20 73
e 20 77
e 20 82
e 20 84
e 20 86
e 20 89
e 20 91
e 20 92
e 20 95
e 20 97
e 20 100
e 21 22
e 21 23
e 21 24
e 21 25
e 21 26
e 21 27
e 21 28
e 21 29
e 21 30
e 21 31
e 21 32
e 21 33
e 21 34
e 21 35
e 21 36
e 21 38
e 21 39
e 21 40
e 21 42
e 21 45
e 21 46
e 21 48
e 21 51
e 21 52
e 21 54
e 21 55
e 21 58
e 21 60
e 21 61
e 21 63
e 21 64
e 21 70
e 21 72
e 21 79
e 21 80
e 21 83
e 21 84
e 21 85
e 21 86
e 21 89
e 21 90
e 21 100
e 22 23
e 22 24
e 22 25
e 22 26
e 22 27
e 22 28
e 22 31
e 22 33
e 22 34
e 22 35
e 22 36
e 22 38
e 22 40
e 22 46
e 22 48
e 22 49
e 22 52
e 22 57
e 22 59
e 22 60
e 22 65
e 22 69
e 22 70
e 22 72
e 22 74
e 22 77
e 22 80
e 22 81
e 22 83
e 22 85
e 22 87
e 22 88
e 23 24
e 23 25
e 23 26
e 23 27
e 23 28
e 23 29
e 23 32
e 23 33
e 23 34
e 23 37
e 23 38
e 23 40
e 23 42
e 23 43
e 23 45
e 23 46
e 23 48
e 23 49
e 23 52
e 23 53
e 23 61
e 23 62
e 23 63
e 23 64
e 23 66
e 23 70
e 23 75
e 23 76
e 23 78
e 23 80
e 23 81
e 23 84
e 23 86
e 23 88
e 23 91
e 23 92
e 23 95
e 23 96
e 23 98
e 24 26
e 24 27
e 24 28
e 24 29
e 24 30
e 24 32
e 24 33
e 24 35
e 24 37
e 24 38
e 24 39
e 24 41
e 24 42
e 24 44
e 24 47
e 24 51
e 24 52
e 24 53
e 24 55
e 24 60
e 24 63
e 24 64
e 24 66
e 24 67
e 24 69
e 24 71
e 24 73
e 24 78
e 24 93
e 24 95
e 24 96
e 25 26
e 25 27
e 25 28
e 25 29
e 25 30
e 25 31
e 25 32
e 25 33
e 25 35
e 25 36
e 25 37
e 25 44
e 25 49
e 25 51
e 25 61
e 25 62
e 25 65
e 25 66
e 25 67
e 25 71
e 25 72
e 25 77
e 25 81
e 25 82
e 25 83
e 25 87
e 25 92
e 25 94
e 25 97
e 25 99
e 26 27
e 26 28
e 26 29
e 26 30
e 26 31
e 26 33
e 26 34
e 26 35
e 26 36
e 26 38
e 26 39
e 26 40
e 26 41
e 26 42
e 26 46
e 26 48
e 26 54
e 26 59
e 26 61
e 26 68
e 26 69
e 26 71
e 26 80
e 26 85
e 26 87
e 26 89
e 27 28
e 27 29
e 27 34
e 27 36
e 27 37
e 27 39
e 27 40
e 27 41
e 27 42
e 27 43
e 27 44
e 27 47
e 27 50
e 27 53
e 27 56
e 27 60
e 27 61
e 27 63
e 27 64
e 27 87
e 27 88
e 27 89
e 27 96
e 27 99
e 28 30
e 28 31
e 28 33
e 28 34
e 28 38
e 28 41
e 28 42
e 28 45
e 28 46
e 28 50
e 28 53
e 28 56
e 28 57
e 28 60
e 28 62
e 28 63
e 28 64
e 28 68
e 28 70
e 28 75
e 28 77
e 28 78
e 28 80
e 28 83
e 28 86
e 28 91
e 28 93
e 28 98
e 28 100
e 29 30
e 29 31
e 29 34
e 29 35
e 29 39
e 29 43
e 29 44
e 29 45
e 29 49
e 29 50
e 29 52
e 29 53
e 29 54
e 29 56
e 29 57
e 29 58
e 29 61
e 29 63
e 29 64
e 29 69
e 29 72
e 29 73
e 29 75
e 29 78
e 29 79
e 29 80
e 29 84
e 29 88
e 29 91
e 29 94
e 29 97
e 29 99
e 30 31
e 30 32
e 30 35
e 30 36
e 30 37
e 30 38
e 30 40
e 30 41
e 30 44
e 30 45
e 30 46
e 30 50
e 30 54
e 30 58
e 30 59
e 30 61
e 30 62
e 30 63
e 30 65
e 30 67
e 30 68
e 30 70
e 30 73
e 30 74
e 30 75
e 30 76
e 30 77
e 30 78
e 30 79
e 30 97
e 30 98
e 31 33
e 31 34
e 31 35
e 31 38
e 31 39
e 31 42
e 31 44
e 31 47
e 31 50
e 31 51
e 31 52
e 31 57
e 31 62
e 31 88
e 31 92
e 31 94
e 31 96
e 31 100
e 32 34
e 32 36
e 32 38
e 32 39
e 32 41
e 32 44
e 32 45
e 32 46
e 32 49
e 32 51
e 32 53
e 32 57
e 32 59
e 32 63
e 32 65
e 32 68
e 32 70
e 32 71
e 32 72
e 32 79
e 32 81
e 32 87
e 32 88
e 32 89
e 32 90
e 32 93
e 32 94
e 32 97
e 33 35
e 33 36
e 33 39
e 33 40
e 33 42
e 33 44
e 33 45
e 33 46
e 33 48
e 33 49
e 33 54
e 33 55
e 33 56
e 33 57
e 33 59
e 33 65
e 33 67
e 33 74
e 33 81
e 33 90
e 33 93
e 33 97
e 34 43
e 34 47
e 34 51
e 34 64
e 34 69
e 34 70
e 34 75
e 34 78
e 34 85
e 34 93
e 34 96
e 34 99
e 35 37
e 35 40
e 35 50
e 35 51
e 35 54
e 35 55
e 35 59
e 35 61
e 35 66
e 35 68
e 35 70
e 35 79
e 35 86
e 35 89
e 35 95
e 35 100
e 36 38
e 36 42
e 36 43
e 36 46
e 36 51
e 36 53
e 36 56
e 36 57
e 36 58
e 36 59
e 36 66
e 36 76
e 36 95
e 36 97
e 36 99
e 37 39
e 37 40
e 37 42
e 37 45
e 37 47
e 37 49
e 37 51
e 37 52
e 37 53
e 37 54
e 37 59
e 37 61
e 37 68
e 37 70
e 37 71
e 37 76
e 37 81
e 37 82
e 37 86
e 37 87
e 37 89
e 37 94
e 37 100
e 38 39
e 38 40
e 38 41
e 38 43
e 38 45
e 38 49
e 38 50
e 38 52
e 38 53
e 38 57
e 38 60
e 38 63
e 38 66
e 38 88
e 38 99
e 39 40
e 39 43
e 39 53
e 39 55
e 39 58
e 39 62
e 39 66
e 39 67
e 39 68
e 39 76
e 39 82
e 39 83
e 39 90
e 39 94
e 40 41
e 40 54
e 40 57
e 40 58
e 40 62
e 40 64
e 40 70
e 40 71
e 40 75
e 40 80
e 40 84
e 40 86
e 40 87
e 40 94
e 40 95
e 41 44
e 41 48
e 41 58
e 41 59
e 41 77
e 41 78
e 41 83
e 41 90
e 41 92
e 41 99
e 42 44
e 42 49
e 42 50
e 42 51
e 42 56
e 42 57
e 42 66
e 42 68
e 42 72
e 42 74
e 42 80
e 42 99
e 43 52
e 43 72
e 43 73
e 43 76
e 43 79
e 43 82
e 43 85
e 43 92
e 44 45
e 44 49
e 44 55
e 44 56
e 44 59
e 44 63
e 44 64
e 44 65
e 44 67
e 44 85
e 44 90
e 44 92
e 44 93
e 44 94
e 45 47
e 45 48
e 45 49
e 45 56
e 45 62
e 45 66
e 45 67
e 45 68
e 45 73
e 46 47
e 46 48
e 46 58
e 46 62
e 46 66
e 46 67
e 46 70
e 46 71
e 46 74
e 46 75
e 46 76
e 46 79
e 47 49
e 47 50
e 47 52
e 47 55
e 47 68
e 47 73
e 47 77
e 47 89
e 47 94
e 47 95
e 47 100
e 48 52
e 48 55
e 48 56
e 48 58
e 48 60
e 48 61
e 48 65
e 48 69
e 48 70
e 48 72
e 48 73
e 48 76
e 48 88
e 48 94
e 48 98
e 48 100
e 49 64
e 49 67
e 49 68
e 49 72
e 49 79
e 49 80
e 49 82
e 50 62
e 50 64
e 50 71
e 50 72
e 50 87
e 51 53
e 51 57
e 51 58
e 51 66
e 51 69
e 51 77
e 51 91
e 51 98
e 51 99
e 51 100
e 52 53
e 52 61
e 52 62
e 52 86
e 52 90
e 52 92
e 52 95
e 52 98
e 53 55
e 53 59
e 53 60
e 53 62
e 53 70
e 53 75
e 53 83
e 53 84
e 53 85
e 53 89
e 53 90
e 54 58
e 54 61
e 54 66
e 54 67
e 54 74
e 54 76
e 54 77
e 54 78
e 54 85
e 54 89
e 54 91
e 54 96
e 55 63
e 55 66
e 55 77
e 55 83
e 55 84
e 56 58
e 56 60
e 56 68
e 56 83
e 56 84
e 56 88
e 56 100
e 57 62
e 57 63
e 57 68
e 57 69
e 57 74
e 57 76
e 57 91
e 57 93
e 58 64
e 58 75
e 58 96
e 59 71
e 59 73
e 59 75
e 59 76
e 59 77
e 59 80
e 59 82
e 59 83
e 59 88
e 59 93
e 60 63
e 60 65
e 60 69
e 60 78
e 60 84
e 60 90
e 60 93
e 61 74
e 61 75
e 61 80
e 61 81
e 61 84
e 61 89
e 61 91
e 61 95
e 62 64
e 62 83
e 62 93
e 62 98
e 63 64
e 63 81
e 63 83
e 63 85
e 64 65
e 64 77
e 64 86
e 64 91
e 64 92
e 64 93
e 64 96
e 64 97
e 65 67
e 65 71
e 65 86
e 65 90
e 65 95
e 65 98
e 66 67
e 66 73
e 66 84
e 66 86
e 66 91
e 66 97
e 67 78
e 67 86
e 67 95
e 68 69
e 68 71
e 68 78
e 68 79
e 68 90
e 68 93
e 69 79
e 69 80
e 69 83
e 69 90
e 69 100
e 70 72
e 70 74
e 70 82
e 70 87
e 70 94
e 70 98
e 71 74
e 71 79
e 71 81
e 71 82
e 71 84
e 71 90
e 71 99
e 72 74
e 72 75
e 72 83
e 72 98
e 73 98
e 74 75
e 74 76
e 74 78
e 74 80
e 74 81
e 74 82
e 74 93
e 74 94
e 74 98
e 74 99
e 75 96
e 75 99
e 76 77
e 76 78
e 76 80
e 76 93
e 77 81
e 77 84
e 77 100
e 78 79
e 78 85
e 78 89
e 79 82
e 79 85
e 79 93
e 79 97
e 80 82
e 80 83
e 80 84
e 80 87
e 81 89
e 81 95
e 82 94
e 82 96
e 82 97
e 83 84
e 84 100
e 86 87
e 86 97
e 87 99
e 88 97
e 89 94
e 89 96
e 90 98
e 90 99
e 91 93
e 91 97
e 94 100
e 95 96
e 95 100
e 96 98
e 99 100
